
Gurobi 10.0.0 (win64) logging started Tue Jun  4 15:48:05 2024

Set parameter LogFile to value "C:\Users\ealvarezq\Documents\GitHub\Comillas\Models\JointResearch\05. Models\06.Benchmarking\D.Representative_days_based_on_RES_and_Demand\9n_mod1_ByStages_nc50/openStarNet_9n_mod1_ByStages_nc50.log"
Set parameter Method to value 2
Set parameter MIPFocus to value 1
Set parameter Presolve to value 2
Set parameter RINS to value 100
Set parameter MIPGap to value 0.01
Set parameter Threads to value 9
Set parameter TimeLimit to value 259200
Set parameter IterationLimit to value 760000000
Gurobi Optimizer version 10.0.0 build v10.0.0rc2 (win64)

CPU model: Intel(R) Core(TM) i7-8700 CPU @ 3.20GHz, instruction set [SSE2|AVX|AVX2]
Thread count: 6 physical cores, 12 logical processors, using up to 9 threads

Optimize a model with 13103 rows, 6988 columns and 39673 nonzeros
Model fingerprint: 0xbc864e2b
Variable types: 6952 continuous, 36 integer (36 binary)
Coefficient statistics:
  Matrix range     [2e-04, 1e+03]
  Objective range  [1e+00, 1e+00]
  Bounds range     [4e-04, 2e+00]
  RHS range        [2e-04, 1e+00]
Presolve removed 4453 rows and 2354 columns
Presolve time: 0.07s
Presolved: 8650 rows, 4634 columns, 29598 nonzeros
Variable types: 4598 continuous, 36 integer (36 binary)
Found heuristic solution: objective 4680.4768904
Root relaxation presolved: 8650 rows, 4634 columns, 29598 nonzeros

Root barrier log...

Ordering time: 0.00s

Barrier statistics:
 Dense cols : 36
 AA' NZ     : 1.025e+05
 Factor NZ  : 2.029e+05 (roughly 7 MB of memory)
 Factor Ops : 6.756e+06 (less than 1 second per iteration)
 Threads    : 9

                  Objective                Residual
Iter       Primal          Dual         Primal    Dual     Compl     Time
   0   4.82074097e+05 -1.64948814e+07  7.22e+00 1.28e+02  3.77e+03     0s
   1   7.81117225e+04 -6.67013815e+06  9.97e-01 1.24e-09  5.78e+02     0s
   2   1.70838566e+04 -1.55296411e+06  6.76e-02 1.21e-09  9.69e+01     0s
   3   4.99070026e+03 -5.61868890e+04  2.20e-03 6.20e-11  3.60e+00     0s
   4   1.16609213e+03 -7.35925584e+03  2.04e-06 8.43e-12  5.00e-01     0s
   5   7.19053069e+02 -2.83131503e+03  1.79e-07 3.14e-12  2.08e-01     0s
   6   4.51052229e+02 -6.09903091e+02  6.79e-08 8.40e-13  6.22e-02     0s
   7   1.53783496e+02 -8.37345656e+01  6.86e-09 9.21e-13  1.39e-02     0s
   8   1.14659193e+02  1.51085952e+01  3.52e-09 7.90e-13  5.83e-03     0s
   9   9.15318431e+01  6.89574788e+01  1.22e-09 9.17e-13  1.32e-03     0s
  10   8.51906240e+01  7.23798604e+01  6.14e-10 5.46e-13  7.51e-04     0s
  11   8.42489334e+01  7.39362562e+01  4.89e-10 6.14e-13  6.04e-04     0s
  12   8.23717965e+01  7.40579949e+01  3.40e-10 6.93e-13  4.87e-04     0s
  13   7.99824505e+01  7.45821144e+01  1.85e-10 6.15e-13  3.16e-04     0s
  14   7.90287315e+01  7.57782741e+01  1.20e-10 5.86e-13  1.90e-04     0s
  15   7.90214590e+01  7.59742310e+01  1.19e-10 8.16e-13  1.79e-04     0s
  16   7.88100438e+01  7.66024572e+01  1.03e-10 4.02e-13  1.29e-04     0s
  17   7.81698304e+01  7.66351534e+01  5.73e-11 5.38e-13  8.99e-05     0s
  18   7.80266135e+01  7.71854466e+01  5.31e-11 5.72e-13  4.93e-05     0s
  19   7.78178601e+01  7.72382169e+01  6.83e-11 6.93e-13  3.40e-05     0s
  20   7.77515160e+01  7.72358426e+01  5.52e-11 7.04e-13  3.02e-05     0s
  21   7.74655708e+01  7.74193406e+01  3.26e-12 8.44e-13  2.71e-06     0s
  22   7.74439188e+01  7.74425482e+01  1.32e-12 7.58e-13  8.03e-08     0s
  23   7.74427119e+01  7.74426054e+01  1.16e-09 1.03e-12  6.24e-09     0s
  24   7.74426157e+01  7.74426155e+01  2.09e-09 1.13e-12  7.20e-12     0s

Barrier solved model in 24 iterations and 0.26 seconds (0.25 work units)
Optimal objective 7.74426157e+01


Root relaxation: objective 7.744262e+01, 459 iterations, 0.17 seconds (0.14 work units)

    Nodes    |    Current Node    |     Objective Bounds      |     Work
 Expl Unexpl |  Obj  Depth IntInf | Incumbent    BestBd   Gap | It/Node Time

     0     0   77.44262    0    6 4680.47689   77.44262  98.3%     -    0s
H    0     0                     160.6621425   77.44262  51.8%     -    0s
     0     0   81.62804    0    1  160.66214   81.62804  49.2%     -    0s
H    0     0                      81.9555613   81.62804  0.40%     -    0s

Cutting planes:
  Gomory: 1
  MIR: 72
  RLT: 1
  Relax-and-lift: 11

Explored 1 nodes (660 simplex iterations) in 0.46 seconds (0.34 work units)
Thread count was 9 (of 12 available processors)

Solution count 3: 81.9556 160.662 4680.48 

Optimal solution found (tolerance 1.00e-02)
Best objective 8.195556126833e+01, best bound 8.162804376987e+01, gap 0.3996%

Gurobi 10.0.0 (win64) logging started Tue Jun  4 15:48:07 2024

Set parameter LogFile to value "C:\Users\ealvarezq\Documents\GitHub\Comillas\Models\JointResearch\05. Models\06.Benchmarking\D.Representative_days_based_on_RES_and_Demand\9n_mod1_ByStages_nc50/openStarNet_9n_mod1_ByStages_nc50.log"
Set parameter Method to value 2
Set parameter MIPFocus to value 1
Set parameter Presolve to value 2
Set parameter RINS to value 100
Set parameter MIPGap to value 0.01
Set parameter Threads to value 9
Set parameter TimeLimit to value 259200
Set parameter IterationLimit to value 760000000
Gurobi Optimizer version 10.0.0 build v10.0.0rc2 (win64)

CPU model: Intel(R) Core(TM) i7-8700 CPU @ 3.20GHz, instruction set [SSE2|AVX|AVX2]
Thread count: 6 physical cores, 12 logical processors, using up to 9 threads

Optimize a model with 13103 rows, 6952 columns and 32437 nonzeros
Model fingerprint: 0xb3d936c4
Coefficient statistics:
  Matrix range     [2e-04, 1e+03]
  Objective range  [1e+00, 1e+00]
  Bounds range     [4e-04, 2e+00]
  RHS range        [2e-04, 2e+01]
Presolve removed 11933 rows and 4605 columns
Presolve time: 0.01s
Presolved: 1170 rows, 2397 columns, 5188 nonzeros

Ordering time: 0.00s

Barrier statistics:
 AA' NZ     : 2.600e+03
 Factor NZ  : 1.156e+04 (roughly 2 MB of memory)
 Factor Ops : 1.503e+05 (less than 1 second per iteration)
 Threads    : 1

                  Objective                Residual
Iter       Primal          Dual         Primal    Dual     Compl     Time
   0   5.92398875e+05 -7.76262742e+06  7.29e+00 1.98e+02  8.15e+03     0s
   1   9.07614578e+04 -4.13955766e+06  9.83e-01 7.28e-12  1.41e+03     0s
   2   2.51129251e+04 -1.07019412e+06  1.35e-01 9.09e-12  2.46e+02     0s
   3   8.57663808e+03 -8.93541301e+04  4.02e-03 1.05e-11  1.82e+01     0s
   4   1.85807449e+03 -3.52613748e+03  8.28e-06 1.00e-11  9.85e-01     0s
   5   7.44915738e+02 -1.21752111e+03  9.41e-08 4.55e-12  3.59e-01     0s
   6   4.24650408e+02 -4.36476935e+02  4.41e-08 1.56e-12  1.58e-01     0s
   7   2.14427055e+02 -1.07484588e+02  1.33e-08 1.27e-12  5.89e-02     0s
   8   1.22602454e+02 -5.17347241e+00  3.38e-09 2.08e-12  2.34e-02     0s
   9   9.46287054e+01  6.06585212e+01  9.23e-10 3.11e-12  6.22e-03     0s
  10   8.31300442e+01  7.97519642e+01  3.66e-11 2.05e-12  6.18e-04     0s
  11   8.21246941e+01  8.17570072e+01  4.43e-12 2.58e-12  6.73e-05     0s
  12   8.19904963e+01  8.19219141e+01  1.28e-12 9.57e-13  1.25e-05     0s
  13   8.19559167e+01  8.19537609e+01  1.92e-13 1.50e-12  3.94e-07     0s
  14   8.19555614e+01  8.19555611e+01  4.45e-13 1.58e-12  4.56e-11     0s

Barrier solved model in 14 iterations and 0.03 seconds (0.02 work units)
Optimal objective 8.19555614e+01

Crossover log...

     581 DPushes remaining with DInf 0.0000000e+00                 0s
       0 DPushes remaining with DInf 0.0000000e+00                 0s

      48 PPushes remaining with PInf 0.0000000e+00                 0s
       0 PPushes remaining with PInf 0.0000000e+00                 0s

  Push phase complete: Pinf 0.0000000e+00, Dinf 1.8783586e-13      0s

Iteration    Objective       Primal Inf.    Dual Inf.      Time
      67    8.1955561e+01   0.000000e+00   0.000000e+00      0s

Solved in 67 iterations and 0.04 seconds (0.03 work units)
Optimal objective  8.195556127e+01

Gurobi 11.0.0 (linux64) logging started Tue Aug  6 19:12:11 2024

Set parameter LogFile to value "/lustre1/scratch/348/vsc34888/JointResearch/05.Models/06.Benchmarking/D.Representative_days_based_on_RES_and_Demand/9n_mod1_ByStages_nc50/openStarNet_9n_mod1_ByStages_nc50.log"
Set parameter Method to value 2
Set parameter MIPFocus to value 1
Set parameter Presolve to value 2
Set parameter RINS to value 100
Set parameter MIPGap to value 0.01
Set parameter Threads to value 36
Set parameter TimeLimit to value 259200
Set parameter IterationLimit to value 760000000
Gurobi Optimizer version 11.0.0 build v11.0.0rc2 (linux64 - "Rocky Linux 8.9 (Green Obsidian)")

CPU model: Intel(R) Xeon(R) Gold 6240 CPU @ 2.60GHz, instruction set [SSE2|AVX|AVX2|AVX512]
Thread count: 36 physical cores, 36 logical processors, using up to 36 threads

Optimize a model with 13103 rows, 6952 columns and 32437 nonzeros
Model fingerprint: 0x1615f248
Coefficient statistics:
  Matrix range     [2e-04, 1e+03]
  Objective range  [1e+00, 1e+00]
  Bounds range     [4e-04, 2e+00]
  RHS range        [2e-04, 1e+00]
Presolve removed 11903 rows and 4561 columns
Presolve time: 0.01s
Presolved: 1200 rows, 2441 columns, 5387 nonzeros

Ordering time: 0.00s

Barrier statistics:
 AA' NZ     : 2.992e+03
 Factor NZ  : 1.260e+04 (roughly 2 MB of memory)
 Factor Ops : 1.730e+05 (less than 1 second per iteration)
 Threads    : 1

                  Objective                Residual
Iter       Primal          Dual         Primal    Dual     Compl     Time
   0   4.27746726e+05 -7.98175916e+06  4.74e+00 8.23e+01  6.29e+03     0s
   1   9.11839350e+04 -3.50319633e+06  8.47e-01 7.13e-12  1.21e+03     0s
   2   2.60299267e+04 -1.07261534e+06  8.30e-02 7.51e-12  2.29e+02     0s
   3   1.32158190e+04 -7.30998227e+04  2.03e-03 6.37e-12  1.57e+01     0s
   4   6.12385818e+03  6.70814308e+02  8.90e-06 6.14e-12  9.86e-01     0s
   5   5.38245710e+03  3.28516264e+03  8.45e-07 2.25e-12  3.79e-01     0s
   6   5.02451717e+03  4.06878752e+03  1.76e-07 1.82e-12  1.73e-01     0s
   7   4.76896232e+03  4.58056290e+03  1.65e-08 1.82e-12  3.41e-02     0s
   8   4.71635660e+03  4.65143234e+03  6.33e-09 1.82e-12  1.17e-02     0s
   9   4.68787237e+03  4.67383968e+03  1.15e-09 9.09e-13  2.54e-03     0s
  10   4.68107180e+03  4.67996307e+03  7.31e-11 2.73e-12  2.00e-04     0s
  11   4.68050948e+03  4.68044500e+03  2.02e-12 1.82e-12  1.17e-05     0s
  12   4.68047769e+03  4.68047541e+03  2.21e-13 1.82e-12  4.12e-07     0s
  13   4.68047689e+03  4.68047689e+03  1.57e-13 9.09e-13  2.49e-11     0s

Barrier solved model in 13 iterations and 0.02 seconds (0.02 work units)
Optimal objective 4.68047689e+03

Crossover log...

     569 DPushes remaining with DInf 0.0000000e+00                 0s
       0 DPushes remaining with DInf 0.0000000e+00                 0s

      50 PPushes remaining with PInf 0.0000000e+00                 0s
       0 PPushes remaining with PInf 0.0000000e+00                 0s

  Push phase complete: Pinf 0.0000000e+00, Dinf 2.1757596e-13      0s

Iteration    Objective       Primal Inf.    Dual Inf.      Time
      85    4.6804769e+03   0.000000e+00   0.000000e+00      0s

Solved in 85 iterations and 0.03 seconds (0.03 work units)
Optimal objective  4.680476890e+03

Gurobi 11.0.0 (linux64) logging started Tue Aug  6 19:12:12 2024

Set parameter LogFile to value "/lustre1/scratch/348/vsc34888/JointResearch/05.Models/06.Benchmarking/D.Representative_days_based_on_RES_and_Demand/9n_mod1_ByStages_nc50/openStarNet_9n_mod1_ByStages_nc50.log"
Set parameter Method to value 2
Set parameter MIPFocus to value 1
Set parameter Presolve to value 2
Set parameter RINS to value 100
Set parameter MIPGap to value 0.01
Set parameter Threads to value 36
Set parameter TimeLimit to value 259200
Set parameter IterationLimit to value 760000000
Gurobi Optimizer version 11.0.0 build v11.0.0rc2 (linux64 - "Rocky Linux 8.9 (Green Obsidian)")

CPU model: Intel(R) Xeon(R) Gold 6240 CPU @ 2.60GHz, instruction set [SSE2|AVX|AVX2|AVX512]
Thread count: 36 physical cores, 36 logical processors, using up to 36 threads

Optimize a model with 13103 rows, 6952 columns and 32437 nonzeros
Model fingerprint: 0x1615f248
Coefficient statistics:
  Matrix range     [2e-04, 1e+03]
  Objective range  [1e+00, 1e+00]
  Bounds range     [4e-04, 2e+00]
  RHS range        [2e-04, 1e+00]
Presolve removed 11903 rows and 4561 columns
Presolve time: 0.01s
Presolved: 1200 rows, 2441 columns, 5387 nonzeros

Ordering time: 0.00s

Barrier statistics:
 AA' NZ     : 2.992e+03
 Factor NZ  : 1.260e+04 (roughly 2 MB of memory)
 Factor Ops : 1.730e+05 (less than 1 second per iteration)
 Threads    : 1

                  Objective                Residual
Iter       Primal          Dual         Primal    Dual     Compl     Time
   0   4.27746726e+05 -7.98175916e+06  4.74e+00 8.23e+01  6.29e+03     0s
   1   9.11839350e+04 -3.50319633e+06  8.47e-01 7.13e-12  1.21e+03     0s
   2   2.60299267e+04 -1.07261534e+06  8.30e-02 7.51e-12  2.29e+02     0s
   3   1.32158190e+04 -7.30998227e+04  2.03e-03 6.37e-12  1.57e+01     0s
   4   6.12385818e+03  6.70814308e+02  8.90e-06 6.14e-12  9.86e-01     0s
   5   5.38245710e+03  3.28516264e+03  8.45e-07 2.25e-12  3.79e-01     0s
   6   5.02451717e+03  4.06878752e+03  1.76e-07 1.82e-12  1.73e-01     0s
   7   4.76896232e+03  4.58056290e+03  1.65e-08 1.82e-12  3.41e-02     0s
   8   4.71635660e+03  4.65143234e+03  6.33e-09 1.82e-12  1.17e-02     0s
   9   4.68787237e+03  4.67383968e+03  1.15e-09 9.09e-13  2.54e-03     0s
  10   4.68107180e+03  4.67996307e+03  7.31e-11 2.73e-12  2.00e-04     0s
  11   4.68050948e+03  4.68044500e+03  2.02e-12 1.82e-12  1.17e-05     0s
  12   4.68047769e+03  4.68047541e+03  2.21e-13 1.82e-12  4.12e-07     0s
  13   4.68047689e+03  4.68047689e+03  1.57e-13 9.09e-13  2.49e-11     0s

Barrier solved model in 13 iterations and 0.02 seconds (0.02 work units)
Optimal objective 4.68047689e+03

Crossover log...

     569 DPushes remaining with DInf 0.0000000e+00                 0s
       0 DPushes remaining with DInf 0.0000000e+00                 0s

      50 PPushes remaining with PInf 0.0000000e+00                 0s
       0 PPushes remaining with PInf 0.0000000e+00                 0s

  Push phase complete: Pinf 0.0000000e+00, Dinf 2.1757596e-13      0s

Iteration    Objective       Primal Inf.    Dual Inf.      Time
      85    4.6804769e+03   0.000000e+00   0.000000e+00      0s

Solved in 85 iterations and 0.03 seconds (0.03 work units)
Optimal objective  4.680476890e+03
